
Gurobi 12.0.2 (win64) logging started Thu Jun  5 10:48:36 2025

Set parameter LogFile to value "C:\Ioana\_uni\honours\slp\algorithm\Main_files\results\others\prox_tubules\Task_003_Sample004_irr_gurobi.log"
Gurobi Optimizer version 12.0.2 build v12.0.2rc0 (win64 - Windows 11.0 (26100.2))

CPU model: Intel(R) Core(TM) Ultra 5 125H, instruction set [SSE2|AVX|AVX2]
Thread count: 14 physical cores, 18 logical processors, using up to 18 threads

Non-default parameters:
TimeLimit  2200

Optimize a model with 47658 rows, 34799 columns and 147846 nonzeros
Model fingerprint: 0x6c433e7e
Variable types: 17405 continuous, 17394 integer (17394 binary)
Coefficient statistics:
  Matrix range     [1e-04, 8e+04]
  Objective range  [3e-05, 1e+01]
  Bounds range     [1e+00, 1e+03]
  RHS range        [1e+00, 1e+00]
Presolve removed 31252 rows and 21840 columns
Presolve time: 0.34s
Presolved: 16406 rows, 12959 columns, 54594 nonzeros
Variable types: 6413 continuous, 6546 integer (6546 binary)

Root relaxation: objective 3.242847e-03, 1921 iterations, 0.13 seconds (0.19 work units)

    Nodes    |    Current Node    |     Objective Bounds      |     Work
 Expl Unexpl |  Obj  Depth IntInf | Incumbent    BestBd   Gap | It/Node Time

     0     0    0.00324    0   10          -    0.00324      -     -    0s
H    0     0                       2.3610654    0.00324   100%     -    0s
     0     0    1.08712    0   11    2.36107    1.08712  54.0%     -    0s
     0     0    1.08759    0   11    2.36107    1.08759  53.9%     -    0s
     0     0    1.48142    0   13    2.36107    1.48142  37.3%     -    1s
     0     0    1.48142    0    7    2.36107    1.48142  37.3%     -    1s
     0     0    2.35918    0   12    2.36107    2.35918  0.08%     -    1s
     0     0     cutoff    0         2.36107    2.36107  0.00%     -    1s

Cutting planes:
  Gomory: 1
  Cover: 7
  MIR: 2
  Flow cover: 3
  Flow path: 4
  Relax-and-lift: 4

Explored 1 nodes (3254 simplex iterations) in 1.30 seconds (1.36 work units)
Thread count was 18 (of 18 available processors)

Solution count 1: 2.36107 

Optimal solution found (tolerance 1.00e-04)
Best objective 2.361065369312e+00, best bound 2.361065369312e+00, gap 0.0000%
